Minimize
  - 8 y_0 - 48 y_1 - 33 y_2 - 39 y_3 - 56 y_4 - 21 y_6 - 33 y_7 - 56 y_8
   - 26 y_9 - 52 y_10 - 32 y_11 - 34 y_12 - 50 y_13 - 45 y_14 - 33 y_15
   - 28 y_16 - 32 y_17 - 53 y_18 - 54 y_19 + 50 x_0_2 + 104 x_0_4
   + 47 x_0_6 + 105 x_0_8 + 39 x_0_9 + 52 x_0_11 + 71 x_0_12 + 95 x_0_13
   + 90 x_0_14 + 49 x_0_15 + 63 x_0_16 + 66 x_0_17 + 52 x_1_2 + 24 x_1_4
   + 77 x_1_6 + 45 x_1_7 + 36 x_1_8 + 34 x_1_11 + 34 x_1_13 + 58 x_1_15
   + 79 x_1_16 + 42 x_1_18 + 13 x_1_19 + 76 x_2_4 + 66 x_2_5 + 73 x_2_6
   + 6 x_2_15 + 84 x_2_16 + 78 x_2_17 + 77 x_3_4 + 84 x_3_6 + 70 x_3_7
   + 77 x_3_10 + 35 x_3_11 + 82 x_3_13 + 97 x_3_14 + 13 x_3_15 + 87 x_3_17
   + 62 x_3_19 + 112 x_4_5 + 70 x_4_9 + 11 x_4_10 + 55 x_4_11 + 71 x_4_12
   + 22 x_4_13 + 83 x_4_16 + 67 x_4_17 + 67 x_5_7 + 52 x_5_9 + 104 x_5_10
   + 63 x_5_11 + 68 x_5_12 + 66 x_5_15 + 57 x_5_16 + 64 x_5_17 + 79 x_6_8
   + 75 x_6_10 + 27 x_6_12 + 68 x_6_13 + 16 x_6_16 + 71 x_6_18 + 88 x_6_19
   + 43 x_7_9 + 40 x_7_10 + 34 x_7_13 + 67 x_7_15 + 39 x_7_18 + 55 x_7_19
   + 60 x_8_11 + 38 x_8_14 + 74 x_8_16 + 59 x_8_17 + 11 x_8_18 + 72 x_9_14
   + 63 x_9_16 + 50 x_10_11 + 59 x_10_12 + 11 x_10_13 + 72 x_10_16
   + 56 x_10_17 + 52 x_11_13 + 62 x_11_14 + 60 x_11_18 + 26 x_12_14
   + 14 x_12_16 + 79 x_12_19 + 63 x_13_16 + 36 x_13_19 + 27 x_14_17
   + 27 x_14_18 + 88 x_15_16 + 82 x_15_17 + 92 x_15_18 + 16 x_16_17
   + 69 x_19_15 + 733 Constant
Subject To
 c_0: y_7 = 1
 c_1_0: y_0 >= 1
 c_1_1: y_1 >= 1
 c_1_2: y_2 + y_15 >= 1
 c_1_3: y_3 >= 1
 c_1_4: y_4 >= 1
 c_1_5: y_5 >= 1
 c_1_6: y_6 >= 1
 c_1_7: y_7 >= 1
 c_1_8: y_8 >= 1
 c_1_9: y_9 >= 1
 c_1_10: y_10 >= 1
 c_1_11: y_11 >= 1
 c_1_12: y_12 + y_17 >= 1
 c_1_13: y_13 >= 1
 c_1_14: y_14 >= 1
 c_1_15: y_2 + y_15 >= 1
 c_1_16: y_16 >= 1
 c_1_17: y_12 + y_17 >= 1
 c_1_18: y_18 >= 1
 c_1_19: y_19 >= 1
 c_2_0: - 2 y_0 + x_0_2 + x_0_4 + x_0_6 + x_0_8 + x_0_9 + x_0_11 + x_0_12
   + x_0_13 + x_0_14 + x_0_15 + x_0_16 + x_0_17 = 0
 c_2_1: - 2 y_1 + x_1_2 + x_1_4 + x_1_6 + x_1_7 + x_1_8 + x_1_11 + x_1_13
   + x_1_15 + x_1_16 + x_1_18 + x_1_19 = 0
 c_2_2: - 2 y_2 + x_0_2 + x_1_2 + x_2_4 + x_2_5 + x_2_6 + x_2_15 + x_2_16
   + x_2_17 = 0
 c_2_3: - 2 y_3 + x_3_4 + x_3_6 + x_3_7 + x_3_10 + x_3_11 + x_3_13 + x_3_14
   + x_3_15 + x_3_17 + x_3_19 = 0
 c_2_4: - 2 y_4 + x_0_4 + x_1_4 + x_2_4 + x_3_4 + x_4_5 + x_4_9 + x_4_10
   + x_4_11 + x_4_12 + x_4_13 + x_4_16 + x_4_17 = 0
 c_2_5: - 2 y_5 + x_2_5 + x_4_5 + x_5_7 + x_5_9 + x_5_10 + x_5_11 + x_5_12
   + x_5_15 + x_5_16 + x_5_17 = 0
 c_2_6: - 2 y_6 + x_0_6 + x_1_6 + x_2_6 + x_3_6 + x_6_8 + x_6_10 + x_6_12
   + x_6_13 + x_6_16 + x_6_18 + x_6_19 = 0
 c_2_7: - 2 y_7 + x_1_7 + x_3_7 + x_5_7 + x_7_9 + x_7_10 + x_7_13 + x_7_15
   + x_7_18 + x_7_19 = 0
 c_2_8: - 2 y_8 + x_0_8 + x_1_8 + x_6_8 + x_8_11 + x_8_14 + x_8_16 + x_8_17
   + x_8_18 = 0
 c_2_9: - 2 y_9 + x_0_9 + x_4_9 + x_5_9 + x_7_9 + x_9_14 + x_9_16 = 0
 c_2_10: - 2 y_10 + x_3_10 + x_4_10 + x_5_10 + x_6_10 + x_7_10 + x_10_11
   + x_10_12 + x_10_13 + x_10_16 + x_10_17 = 0
 c_2_11: - 2 y_11 + x_0_11 + x_1_11 + x_3_11 + x_4_11 + x_5_11 + x_8_11
   + x_10_11 + x_11_13 + x_11_14 + x_11_18 = 0
 c_2_12: - 2 y_12 + x_0_12 + x_4_12 + x_5_12 + x_6_12 + x_10_12 + x_12_14
   + x_12_16 + x_12_19 = 0
 c_2_13: - 2 y_13 + x_0_13 + x_1_13 + x_3_13 + x_4_13 + x_6_13 + x_7_13
   + x_10_13 + x_11_13 + x_13_16 + x_13_19 = 0
 c_2_14: - 2 y_14 + x_0_14 + x_3_14 + x_8_14 + x_9_14 + x_11_14 + x_12_14
   + x_14_17 + x_14_18 = 0
 c_2_15: - 2 y_15 + x_0_15 + x_1_15 + x_2_15 + x_3_15 + x_5_15 + x_7_15
   + x_15_16 + x_15_17 + x_15_18 + x_19_15 = 0
 c_2_16: - 2 y_16 + x_0_16 + x_1_16 + x_2_16 + x_4_16 + x_5_16 + x_6_16
   + x_8_16 + x_9_16 + x_10_16 + x_12_16 + x_13_16 + x_15_16 + x_16_17 = 0
 c_2_17: - 2 y_17 + x_0_17 + x_2_17 + x_3_17 + x_4_17 + x_5_17 + x_8_17
   + x_10_17 + x_14_17 + x_15_17 + x_16_17 = 0
 c_2_18: - 2 y_18 + x_1_18 + x_6_18 + x_7_18 + x_8_18 + x_11_18 + x_14_18
   + x_15_18 = 0
 c_2_19: - 2 y_19 + x_1_19 + x_3_19 + x_6_19 + x_7_19 + x_12_19 + x_13_19
   + x_19_15 = 0
Bounds
 Constant = 1
Binaries
 y_0 y_1 y_2 y_3 y_4 y_5 y_6 y_7 y_8 y_9 y_10 y_11 y_12 y_13 y_14 y_15 y_16
 y_17 y_18 y_19 x_0_2 x_0_4 x_0_6 x_0_8 x_0_9 x_0_11 x_0_12 x_0_13 x_0_14
 x_0_15 x_0_16 x_0_17 x_1_2 x_1_4 x_1_6 x_1_7 x_1_8 x_1_11 x_1_13 x_1_15
 x_1_16 x_1_18 x_1_19 x_2_4 x_2_5 x_2_6 x_2_15 x_2_16 x_2_17 x_3_4 x_3_6
 x_3_7 x_3_10 x_3_11 x_3_13 x_3_14 x_3_15 x_3_17 x_3_19 x_4_5 x_4_9 x_4_10
 x_4_11 x_4_12 x_4_13 x_4_16 x_4_17 x_5_7 x_5_9 x_5_10 x_5_11 x_5_12 x_5_15
 x_5_16 x_5_17 x_6_8 x_6_10 x_6_12 x_6_13 x_6_16 x_6_18 x_6_19 x_7_9 x_7_10
 x_7_13 x_7_15 x_7_18 x_7_19 x_8_11 x_8_14 x_8_16 x_8_17 x_8_18 x_9_14
 x_9_16 x_10_11 x_10_12 x_10_13 x_10_16 x_10_17 x_11_13 x_11_14 x_11_18
 x_12_14 x_12_16 x_12_19 x_13_16 x_13_19 x_14_17 x_14_18 x_15_16 x_15_17
 x_15_18 x_16_17 x_19_15
End
